DyCl6                                   
    1.000000000000000     
     0.0000000000000000    5.3715000000000002    5.3715000000000002
     5.3715000000000002    0.0000000000000000    5.3715000000000002
     5.3715000000000002    5.3715000000000002    0.0000000000000000
   Dy   Cs   Na   Cl
     1     2     1     6
Direct
  0.5000000000000000  0.5000000000000000  0.5000000000000000
  0.2500000000000000  0.2500000000000000  0.2500000000000000
  0.7500000000000000  0.7500000000000000  0.7500000000000000
  0.0000000000000000  0.0000000000000000  0.0000000000000000
  0.2464395419999974  0.7535604580000026  0.7535604580000026
  0.7535604580000026  0.2464395419999974  0.2464395419999974
  0.7535604580000026  0.2464395419999974  0.7535604580000026
  0.2464395419999974  0.7535604580000026  0.2464395419999974
  0.7535604580000026  0.7535604580000026  0.2464395419999974
  0.2464395419999974  0.2464395419999974  0.7535604580000026
 
  0.00000000E+00  0.00000000E+00  0.00000000E+00
  0.00000000E+00  0.00000000E+00  0.00000000E+00
  0.00000000E+00  0.00000000E+00  0.00000000E+00
  0.00000000E+00  0.00000000E+00  0.00000000E+00
  0.00000000E+00  0.00000000E+00  0.00000000E+00
  0.00000000E+00  0.00000000E+00  0.00000000E+00
  0.00000000E+00  0.00000000E+00  0.00000000E+00
  0.00000000E+00  0.00000000E+00  0.00000000E+00
  0.00000000E+00  0.00000000E+00  0.00000000E+00
  0.00000000E+00  0.00000000E+00  0.00000000E+00
