DyCl6
1.0
        0.0000000000         5.3715000000         5.3715000000
        5.3715000000         0.0000000000         5.3715000000
        5.3715000000         5.3715000000         0.0000000000
   Dy   Cs   Na   Cl
    1    2    1    6
Direct
     0.500000000         0.500000000         0.500000000
     0.250000000         0.250000000         0.250000000
     0.750000000         0.750000000         0.750000000
     0.000000000         0.000000000         0.000000000
     0.246439542         0.753560458         0.753560458
     0.753560458         0.246439542         0.246439542
     0.753560458         0.246439542         0.753560458
     0.246439542         0.753560458         0.246439542
     0.753560458         0.753560458         0.246439542
     0.246439542         0.246439542         0.753560458

